100 91581

 972 58
944 381
266 904
227 21
958 475
459 932
209 395
707 429
285 579
268 463
880 169
163 19
65 610
270 921
607 107
124 211
472 371
628 809
849 270
230 883
818 55
235 941
677 561
431 659
115 368
715 782
218 167
177 49
359 396
654 854
234 755
184 518
10 573
472 130
429 841
234 787
54 657
430 467
789 965
716 880
861 645
10 372
967 619
342 576
991 395
253 307
472 408
354 574
356 429
843 264
747 761
993 532
614 68
464 369
91 885
997 756
552 324
701 939
407 77
548 962
943 246
167 10
293 434
153 359
793 540
63 797
82 843
299 402
515 430
407 149
45 48
958 642
953 65
280 734
732 540
579 199
238 540
263 183
492 439
420 800
292 462
808 149
482 724
655 187
190 739
534 480
318 454
527 852
781 709
769 33
355 297
695 871
942 19
626 546
149 728
680 622
105 761
873 726
517 693
386 822
